c cnf generated by mark.reason.ac.CompilerAce written by Mark Chavira
c
c Following are a few statistics:
c
c     Number of potentials               : 861
c     Number of constant potentials      : 16
c     Number of root potentials          : 529
c     Number of zero-one root potentials : 368
c     Number of literals                 : 3464
c
p cnf 1217 1993
1 0
2 0
3 0
4 0
5 0
6 0
7 0
8 0
9 0
10 0
11 0
12 0
13 0
14 0
15 0
16 0
17 18 0
-18 -17 0
19 0
20 0
21 22 0
-22 -21 0
23 0
24 0
25 26 0
-26 -25 0
-26 0
27 28 0
-28 -27 0
-28 0
29 30 0
-30 -29 0
-30 0
31 32 0
-32 -31 0
-32 0
33 34 0
-34 -33 0
-34 0
35 36 0
-36 -35 0
-36 0
37 38 0
-38 -37 0
-38 0
39 40 0
-40 -39 0
-40 0
41 42 0
-42 -41 0
-42 0
43 44 0
-44 -43 0
45 0
46 47 0
-47 -46 0
48 0
49 0
50 51 0
-51 -50 0
52 0
53 54 0
-54 -53 0
55 0
56 57 0
-57 -56 0
58 0
59 60 0
-60 -59 0
61 0
62 63 0
-63 -62 0
64 0
65 66 0
-66 -65 0
67 0
68 69 0
-69 -68 0
70 0
71 72 0
-72 -71 0
73 0
74 75 0
-75 -74 0
76 0
77 78 0
-78 -77 0
79 0
80 81 0
-81 -80 0
82 0
83 0
84 85 0
-85 -84 0
86 0
87 88 0
-88 -87 0
89 0
90 91 0
-91 -90 0
92 0
93 94 0
-94 -93 0
95 0
96 97 0
-97 -96 0
98 0
99 100 0
-100 -99 0
101 0
102 103 0
-103 -102 0
104 0
105 106 0
-106 -105 0
107 0
108 109 0
-109 -108 0
110 0
111 112 0
-112 -111 0
113 0
114 115 0
-115 -114 0
116 0
117 0
118 119 0
-119 -118 0
120 0
121 122 0
-122 -121 0
123 0
124 125 0
-125 -124 0
126 0
127 128 0
-128 -127 0
129 0
130 131 0
-131 -130 0
132 0
133 134 0
-134 -133 0
135 0
136 137 0
-137 -136 0
138 0
139 140 0
-140 -139 0
141 0
142 143 0
-143 -142 0
144 0
145 146 0
-146 -145 0
147 0
148 149 0
-149 -148 0
150 0
151 0
152 153 0
-153 -152 0
154 0
155 156 0
-156 -155 0
157 0
158 159 0
-159 -158 0
160 0
161 162 0
-162 -161 0
163 0
164 165 0
-165 -164 0
166 0
167 168 0
-168 -167 0
169 0
170 171 0
-171 -170 0
172 0
173 174 0
-174 -173 0
175 0
176 177 0
-177 -176 0
178 0
179 180 0
-180 -179 0
181 0
182 183 0
-183 -182 0
184 0
185 0
186 187 0
-187 -186 0
188 0
189 190 0
-190 -189 0
191 0
192 193 0
-193 -192 0
194 0
195 196 0
-196 -195 0
197 0
198 199 0
-199 -198 0
200 0
201 202 0
-202 -201 0
203 0
204 205 0
-205 -204 0
206 0
207 208 0
-208 -207 0
209 0
210 211 0
-211 -210 0
212 0
213 214 0
-214 -213 0
215 0
216 217 0
-217 -216 0
218 0
219 0
220 221 0
-221 -220 0
222 0
223 224 0
-224 -223 0
225 0
226 227 0
-227 -226 0
228 0
229 230 0
-230 -229 0
231 0
232 233 0
-233 -232 0
234 0
235 236 0
-236 -235 0
237 0
238 239 0
-239 -238 0
240 0
241 242 0
-242 -241 0
243 0
244 245 0
-245 -244 0
246 0
247 248 0
-248 -247 0
249 0
250 251 0
-251 -250 0
252 0
253 0
254 255 0
-255 -254 0
256 0
257 258 0
-258 -257 0
259 0
260 261 0
-261 -260 0
262 0
263 264 0
-264 -263 0
265 0
266 267 0
-267 -266 0
268 0
269 270 0
-270 -269 0
271 0
272 273 0
-273 -272 0
-273 0
274 275 0
-275 -274 0
-275 0
276 277 0
-277 -276 0
-276 0
278 279 0
-279 -278 0
-278 0
280 281 0
-281 -280 0
282 0
283 0
284 285 0
-285 -284 0
-284 0
286 287 0
-287 -286 0
-286 0
288 289 0
-289 -288 0
-288 0
290 291 0
-291 -290 0
-290 0
292 293 0
-293 -292 0
-292 0
294 295 0
-295 -294 0
-294 0
296 297 0
-297 -296 0
-296 0
298 299 0
-299 -298 0
-298 0
300 301 0
-301 -300 0
-300 0
302 303 0
-303 -302 0
-302 0
304 305 0
-305 -304 0
306 0
307 308 0
-308 -307 0
-307 0
309 310 0
-310 -309 0
-309 0
311 312 0
-312 -311 0
-311 0
313 314 0
-314 -313 0
-313 0
315 316 0
-316 -315 0
-315 0
317 318 0
-318 -317 0
-317 0
319 320 0
-320 -319 0
-319 0
321 322 0
-322 -321 0
-321 0
323 324 0
-324 -323 0
-323 0
325 326 0
-326 -325 0
-325 0
327 328 0
-328 -327 0
329 0
330 0
331 332 0
-332 -331 0
333 0
334 335 0
-335 -334 0
-334 0
336 337 0
-337 -336 0
-336 0
338 339 0
-339 -338 0
-338 0
340 341 0
-341 -340 0
-340 0
342 343 0
-343 -342 0
-342 0
344 345 0
-345 -344 0
-344 0
346 347 0
-347 -346 0
-346 0
348 349 0
-349 -348 0
-348 0
350 351 0
-351 -350 0
-350 0
352 353 0
-353 -352 0
-352 0
354 355 0
-355 -354 0
356 0
357 358 0
-358 -357 0
-357 0
359 360 0
-360 -359 0
-359 0
361 362 0
-362 -361 0
-361 0
363 364 0
-364 -363 0
-363 0
365 366 0
-366 -365 0
-365 0
367 368 0
-368 -367 0
-367 0
369 370 0
-370 -369 0
-369 0
371 372 0
-372 -371 0
-371 0
373 374 0
-374 -373 0
-373 0
375 376 0
-376 -375 0
-375 0
377 378 0
-378 -377 0
379 0
380 381 0
-381 -380 0
-380 0
382 383 0
-383 -382 0
-382 0
384 385 0
-385 -384 0
-384 0
386 387 0
-387 -386 0
-386 0
388 389 0
-389 -388 0
-388 0
390 391 0
-391 -390 0
-390 0
392 393 0
-393 -392 0
-392 0
394 395 0
-395 -394 0
-394 0
396 397 0
-397 -396 0
-396 0
398 399 0
-399 -398 0
-398 0
400 401 0
-401 -400 0
402 0
403 404 0
-404 -403 0
-403 0
405 406 0
-406 -405 0
-405 0
407 408 0
-408 -407 0
-407 0
409 410 0
-410 -409 0
-409 0
411 412 0
-412 -411 0
-411 0
413 414 0
-414 -413 0
-413 0
415 416 0
-416 -415 0
-415 0
417 418 0
-418 -417 0
-417 0
419 420 0
-420 -419 0
-419 0
421 422 0
-422 -421 0
-421 0
423 424 0
-424 -423 0
425 0
426 427 0
-427 -426 0
-426 0
428 429 0
-429 -428 0
-428 0
430 431 0
-431 -430 0
-430 0
432 433 0
-433 -432 0
-432 0
434 435 0
-435 -434 0
-434 0
436 437 0
-437 -436 0
-436 0
438 439 0
-439 -438 0
-438 0
440 441 0
-441 -440 0
-440 0
442 443 0
-443 -442 0
-442 0
444 445 0
-445 -444 0
-444 0
446 447 0
-447 -446 0
448 0
449 450 0
-450 -449 0
-449 0
451 452 0
-452 -451 0
-451 0
453 454 0
-454 -453 0
-453 0
455 456 0
-456 -455 0
-455 0
457 458 0
-458 -457 0
-457 0
459 460 0
-460 -459 0
-459 0
461 462 0
-462 -461 0
-461 0
463 464 0
-464 -463 0
-463 0
465 466 0
-466 -465 0
-465 0
467 468 0
-468 -467 0
-467 0
469 470 0
-470 -469 0
471 0
472 473 0
-473 -472 0
-472 0
474 475 0
-475 -474 0
-474 0
476 477 0
-477 -476 0
-476 0
478 479 0
-479 -478 0
-478 0
480 481 0
-481 -480 0
-480 0
482 483 0
-483 -482 0
-482 0
484 485 0
-485 -484 0
-484 0
486 487 0
-487 -486 0
-486 0
488 489 0
-489 -488 0
-488 0
490 491 0
-491 -490 0
-490 0
492 493 0
-493 -492 0
494 0
495 496 0
-496 -495 0
-495 0
497 498 0
-498 -497 0
-497 0
499 500 0
-500 -499 0
-499 0
501 502 0
-502 -501 0
-501 0
503 504 0
-504 -503 0
-503 0
505 506 0
-506 -505 0
-505 0
507 508 0
-508 -507 0
-507 0
509 510 0
-510 -509 0
-509 0
511 512 0
-512 -511 0
-511 0
513 514 0
-514 -513 0
-513 0
515 516 0
-516 -515 0
517 0
518 519 0
-519 -518 0
-518 0
520 521 0
-521 -520 0
-520 0
522 523 0
-523 -522 0
-522 0
524 525 0
-525 -524 0
-524 0
526 527 0
-527 -526 0
-526 0
528 529 0
-529 -528 0
-528 0
530 531 0
-531 -530 0
-530 0
532 533 0
-533 -532 0
-532 0
534 535 0
-535 -534 0
-534 0
536 537 0
-537 -536 0
-536 0
538 539 0
-539 -538 0
540 0
541 542 0
-542 -541 0
-541 0
543 544 0
-544 -543 0
-543 0
545 546 0
-546 -545 0
-545 0
547 548 0
-548 -547 0
-547 0
549 550 0
-550 -549 0
-549 0
551 552 0
-552 -551 0
-551 0
553 554 0
-554 -553 0
-553 0
555 556 0
-556 -555 0
-555 0
557 558 0
-558 -557 0
-557 0
559 560 0
-560 -559 0
-559 0
561 562 0
-562 -561 0
563 0
564 0
565 566 0
-566 -565 0
567 0
568 569 0
-569 -568 0
-568 0
570 571 0
-571 -570 0
-570 0
572 573 0
-573 -572 0
-572 0
574 575 0
-575 -574 0
-574 0
576 577 0
-577 -576 0
-576 0
578 579 0
-579 -578 0
-578 0
580 581 0
-581 -580 0
-580 0
582 583 0
-583 -582 0
-582 0
584 585 0
-585 -584 0
-584 0
586 587 0
-587 -586 0
-586 0
588 589 0
-589 -588 0
590 0
591 592 0
-592 -591 0
-591 0
593 594 0
-594 -593 0
-593 0
595 596 0
-596 -595 0
-595 0
597 598 0
-598 -597 0
-597 0
599 600 0
-600 -599 0
-599 0
601 602 0
-602 -601 0
-601 0
603 604 0
-604 -603 0
-603 0
605 606 0
-606 -605 0
-605 0
607 608 0
-608 -607 0
-607 0
609 610 0
-610 -609 0
-609 0
611 612 0
-612 -611 0
613 0
614 615 0
-615 -614 0
-614 0
616 617 0
-617 -616 0
-616 0
618 619 0
-619 -618 0
-618 0
620 621 0
-621 -620 0
-620 0
622 623 0
-623 -622 0
-622 0
624 625 0
-625 -624 0
-624 0
626 627 0
-627 -626 0
-626 0
628 629 0
-629 -628 0
-628 0
630 631 0
-631 -630 0
-630 0
632 633 0
-633 -632 0
-632 0
634 635 0
-635 -634 0
636 0
637 638 0
-638 -637 0
-637 0
639 640 0
-640 -639 0
-639 0
641 642 0
-642 -641 0
-641 0
643 644 0
-644 -643 0
-643 0
645 646 0
-646 -645 0
-645 0
647 648 0
-648 -647 0
-647 0
649 650 0
-650 -649 0
-649 0
651 652 0
-652 -651 0
-651 0
653 654 0
-654 -653 0
-653 0
655 656 0
-656 -655 0
-655 0
657 658 0
-658 -657 0
659 0
660 661 0
-661 -660 0
-660 0
662 663 0
-663 -662 0
-662 0
664 665 0
-665 -664 0
-664 0
666 667 0
-667 -666 0
-666 0
668 669 0
-669 -668 0
-668 0
670 671 0
-671 -670 0
-670 0
672 673 0
-673 -672 0
-672 0
674 675 0
-675 -674 0
-674 0
676 677 0
-677 -676 0
-676 0
678 679 0
-679 -678 0
-678 0
680 681 0
-681 -680 0
682 0
683 684 0
-684 -683 0
-683 0
685 686 0
-686 -685 0
-685 0
687 688 0
-688 -687 0
-687 0
689 690 0
-690 -689 0
-689 0
691 692 0
-692 -691 0
-691 0
693 694 0
-694 -693 0
-693 0
695 696 0
-696 -695 0
-695 0
697 698 0
-698 -697 0
-697 0
699 700 0
-700 -699 0
-699 0
701 702 0
-702 -701 0
-701 0
703 704 0
-704 -703 0
705 0
706 707 0
-707 -706 0
-706 0
708 709 0
-709 -708 0
-708 0
710 711 0
-711 -710 0
-710 0
712 713 0
-713 -712 0
-712 0
714 715 0
-715 -714 0
-714 0
716 717 0
-717 -716 0
-716 0
718 719 0
-719 -718 0
-718 0
720 721 0
-721 -720 0
-720 0
722 723 0
-723 -722 0
-722 0
724 725 0
-725 -724 0
-724 0
726 727 0
-727 -726 0
728 0
729 730 0
-730 -729 0
-729 0
731 732 0
-732 -731 0
-731 0
733 734 0
-734 -733 0
-733 0
735 736 0
-736 -735 0
-735 0
737 738 0
-738 -737 0
-737 0
739 740 0
-740 -739 0
-739 0
741 742 0
-742 -741 0
-741 0
743 744 0
-744 -743 0
-743 0
745 746 0
-746 -745 0
-745 0
747 748 0
-748 -747 0
-747 0
749 750 0
-750 -749 0
751 0
752 753 0
-753 -752 0
-752 0
754 755 0
-755 -754 0
-754 0
756 757 0
-757 -756 0
-756 0
758 759 0
-759 -758 0
-758 0
760 761 0
-761 -760 0
-760 0
762 763 0
-763 -762 0
-762 0
764 765 0
-765 -764 0
-764 0
766 767 0
-767 -766 0
-766 0
768 769 0
-769 -768 0
-768 0
770 771 0
-771 -770 0
-770 0
772 773 0
-773 -772 0
774 0
775 776 0
-776 -775 0
-775 0
777 778 0
-778 -777 0
-777 0
779 780 0
-780 -779 0
-779 0
781 782 0
-782 -781 0
-781 0
783 784 0
-784 -783 0
-783 0
785 786 0
-786 -785 0
-785 0
787 788 0
-788 -787 0
-787 0
789 790 0
-790 -789 0
-789 0
791 792 0
-792 -791 0
-791 0
793 794 0
-794 -793 0
-793 0
795 796 0
-796 -795 0
797 0
798 0
799 800 0
-800 -799 0
801 0
802 803 0
-803 -802 0
-802 0
804 805 0
-805 -804 0
-804 0
806 807 0
-807 -806 0
-806 0
808 809 0
-809 -808 0
-808 0
810 811 0
-811 -810 0
-810 0
812 813 0
-813 -812 0
-812 0
814 815 0
-815 -814 0
-814 0
816 817 0
-817 -816 0
-816 0
818 819 0
-819 -818 0
-818 0
820 821 0
-821 -820 0
-820 0
822 823 0
-823 -822 0
824 0
825 826 0
-826 -825 0
-825 0
827 828 0
-828 -827 0
-827 0
829 830 0
-830 -829 0
-829 0
831 832 0
-832 -831 0
-831 0
833 834 0
-834 -833 0
-833 0
835 836 0
-836 -835 0
-835 0
837 838 0
-838 -837 0
-837 0
839 840 0
-840 -839 0
-839 0
841 842 0
-842 -841 0
-841 0
843 844 0
-844 -843 0
-843 0
845 846 0
-846 -845 0
847 0
848 849 0
-849 -848 0
-848 0
850 851 0
-851 -850 0
-850 0
852 853 0
-853 -852 0
-852 0
854 855 0
-855 -854 0
-854 0
856 857 0
-857 -856 0
-856 0
858 859 0
-859 -858 0
-858 0
860 861 0
-861 -860 0
-860 0
862 863 0
-863 -862 0
-862 0
864 865 0
-865 -864 0
-864 0
866 867 0
-867 -866 0
-866 0
868 869 0
-869 -868 0
870 0
871 872 0
-872 -871 0
-871 0
873 874 0
-874 -873 0
-873 0
875 876 0
-876 -875 0
-875 0
877 878 0
-878 -877 0
-877 0
879 880 0
-880 -879 0
-879 0
881 882 0
-882 -881 0
-881 0
883 884 0
-884 -883 0
-883 0
885 886 0
-886 -885 0
-885 0
887 888 0
-888 -887 0
-887 0
889 890 0
-890 -889 0
-889 0
891 892 0
-892 -891 0
893 0
894 895 0
-895 -894 0
-894 0
896 897 0
-897 -896 0
-896 0
898 899 0
-899 -898 0
-898 0
900 901 0
-901 -900 0
-900 0
902 903 0
-903 -902 0
-902 0
904 905 0
-905 -904 0
-904 0
906 907 0
-907 -906 0
-906 0
908 909 0
-909 -908 0
-908 0
910 911 0
-911 -910 0
-910 0
912 913 0
-913 -912 0
-912 0
914 915 0
-915 -914 0
916 0
917 918 0
-918 -917 0
-917 0
919 920 0
-920 -919 0
-919 0
921 922 0
-922 -921 0
-921 0
923 924 0
-924 -923 0
-923 0
925 926 0
-926 -925 0
-925 0
927 928 0
-928 -927 0
-927 0
929 930 0
-930 -929 0
-929 0
931 932 0
-932 -931 0
-931 0
933 934 0
-934 -933 0
-933 0
935 936 0
-936 -935 0
-935 0
937 938 0
-938 -937 0
939 0
940 941 0
-941 -940 0
-940 0
942 943 0
-943 -942 0
-942 0
944 945 0
-945 -944 0
-944 0
946 947 0
-947 -946 0
-946 0
948 949 0
-949 -948 0
-948 0
950 951 0
-951 -950 0
-950 0
952 953 0
-953 -952 0
-952 0
954 955 0
-955 -954 0
-954 0
956 957 0
-957 -956 0
-956 0
958 959 0
-959 -958 0
-958 0
960 961 0
-961 -960 0
962 0
963 964 0
-964 -963 0
-963 0
965 966 0
-966 -965 0
-965 0
967 968 0
-968 -967 0
-967 0
969 970 0
-970 -969 0
-969 0
971 972 0
-972 -971 0
-971 0
973 974 0
-974 -973 0
-973 0
975 976 0
-976 -975 0
-975 0
977 978 0
-978 -977 0
-977 0
979 980 0
-980 -979 0
-979 0
981 982 0
-982 -981 0
-981 0
983 984 0
-984 -983 0
985 0
986 987 0
-987 -986 0
-986 0
988 989 0
-989 -988 0
-988 0
990 991 0
-991 -990 0
-990 0
992 993 0
-993 -992 0
-992 0
994 995 0
-995 -994 0
-994 0
996 997 0
-997 -996 0
-996 0
998 999 0
-999 -998 0
-998 0
1000 1001 0
-1001 -1000 0
-1000 0
1002 1003 0
-1003 -1002 0
-1002 0
1004 1005 0
-1005 -1004 0
-1004 0
1006 1007 0
-1007 -1006 0
1008 0
1009 1010 0
-1010 -1009 0
-1009 0
1011 1012 0
-1012 -1011 0
-1011 0
1013 1014 0
-1014 -1013 0
-1013 0
1015 1016 0
-1016 -1015 0
-1015 0
1017 1018 0
-1018 -1017 0
-1017 0
1019 1020 0
-1020 -1019 0
-1019 0
1021 1022 0
-1022 -1021 0
-1021 0
1023 1024 0
-1024 -1023 0
-1023 0
1025 1026 0
-1026 -1025 0
-1025 0
1027 1028 0
-1028 -1027 0
-1027 0
1029 1030 0
-1030 -1029 0
1031 0
1032 0
1033 1034 0
-1034 -1033 0
1035 0
1036 1037 0
-1037 -1036 0
-1036 0
1038 1039 0
-1039 -1038 0
-1038 0
1040 1041 0
-1041 -1040 0
-1040 0
1042 1043 0
-1043 -1042 0
-1042 0
1044 1045 0
-1045 -1044 0
-1044 0
1046 1047 0
-1047 -1046 0
-1046 0
1048 1049 0
-1049 -1048 0
-1048 0
1050 1051 0
-1051 -1050 0
-1050 0
1052 1053 0
-1053 -1052 0
-1052 0
1054 1055 0
-1055 -1054 0
-1054 0
1056 1057 0
-1057 -1056 0
1058 0
1059 1060 0
-1060 -1059 0
-1059 0
1061 1062 0
-1062 -1061 0
-1061 0
1063 1064 0
-1064 -1063 0
1065 0
1066 1067 0
-1067 -1066 0
1068 0
1069 1070 0
-1070 -1069 0
1071 0
1072 1073 0
-1073 -1072 0
1074 0
1075 1076 0
-1076 -1075 0
1077 0
1078 1079 0
-1079 -1078 0
1080 0
1081 1082 0
-1082 -1081 0
1083 0
1084 1085 0
-1085 -1084 0
1086 0
1087 1088 0
-1088 -1087 0
1089 0
1090 0
1091 1092 0
-1092 -1091 0
1093 0
1094 1095 0
-1095 -1094 0
1096 0
1097 1098 0
-1098 -1097 0
1099 0
1100 1101 0
-1101 -1100 0
1102 0
1103 1104 0
-1104 -1103 0
1105 0
1106 1107 0
-1107 -1106 0
1108 0
1109 1110 0
-1110 -1109 0
1111 0
1112 1113 0
-1113 -1112 0
1114 0
1115 1116 0
-1116 -1115 0
1117 0
1118 1119 0
-1119 -1118 0
1120 0
1121 1122 0
-1122 -1121 0
1123 0
1124 0
1125 1126 0
-1126 -1125 0
1127 0
1128 1129 0
-1129 -1128 0
1130 0
1131 1132 0
-1132 -1131 0
1133 0
1134 1135 0
-1135 -1134 0
1136 0
1137 1138 0
-1138 -1137 0
1139 0
1140 1141 0
-1141 -1140 0
1142 0
1143 1144 0
-1144 -1143 0
1145 0
1146 1147 0
-1147 -1146 0
1148 0
1149 1150 0
-1150 -1149 0
1151 0
1152 1153 0
-1153 -1152 0
1154 0
1155 1156 0
-1156 -1155 0
1157 0
1158 0
1159 1160 0
-1160 -1159 0
1161 0
1162 1163 0
-1163 -1162 0
1164 0
1165 1166 0
-1166 -1165 0
1167 0
1168 1169 0
-1169 -1168 0
1170 0
1171 1172 0
-1172 -1171 0
1173 0
1174 1175 0
-1175 -1174 0
1176 0
1177 1178 0
-1178 -1177 0
1179 0
1180 1181 0
-1181 -1180 0
1182 0
1183 1184 0
-1184 -1183 0
1185 0
1186 1187 0
-1187 -1186 0
1188 0
1189 1190 0
-1190 -1189 0
1191 0
1192 0
1193 1194 0
-1194 -1193 0
1195 0
1196 1197 0
-1197 -1196 0
1198 0
1199 1200 0
-1200 -1199 0
1201 0
1202 1203 0
-1203 -1202 0
1204 0
1205 1206 0
-1206 -1205 0
1207 0
1208 1209 0
-1209 -1208 0
-1209 0
1210 1211 0
-1211 -1210 0
-1211 0
1212 1213 0
-1213 -1212 0
-1213 0
1214 1215 0
-1215 -1214 0
-1215 0
1216 1217 0
-1217 -1216 0
-1217 0
-148 -21 0
-216 -21 0
-183 -43 0
-217 -50 0
-1088 -53 0
-1156 -56 0
-59 -18 0
-328 -62 0
-81 -65 0
-1122 -68 0
-1030 -71 0
-1190 -74 0
-149 -77 0
-84 -22 0
-251 -87 0
-562 -90 0
-93 -47 0
-796 -96 0
-281 -99 0
-115 -102 0
-516 -111 0
-566 -118 0
-305 -121 0
-332 -124 0
-750 -127 0
-539 -130 0
-727 -145 0
-216 -148 0
-355 -152 0
-869 -155 0
-892 -158 0
-424 -164 0
-773 -167 0
-1064 -173 0
-1067 -176 0
-938 -179 0
-961 -186 0
-1057 -189 0
-1095 -192 0
-1110 -204 0
-1092 -207 0
-1116 -213 0
-1101 -223 0
-1150 -229 0
-1153 -232 0
-1126 -235 0
-1172 -241 0
-1169 -247 0
-1184 -254 0
-1187 -257 0
-1147 -263 0
-1138 -266 0
-304 -60 0
-331 -63 0
-354 -91 0
-400 -377 0
-423 -377 0
-634 -377 0
-703 -377 0
-799 -377 0
-822 -377 0
-423 -400 0
-634 -400 0
-680 -400 0
-703 -400 0
-799 -400 0
-822 -400 0
-446 -423 0
-469 -423 0
-588 -423 0
-611 -423 0
-680 -423 0
-703 -423 0
-799 -423 0
-822 -423 0
-446 -72 0
-469 -446 0
-588 -446 0
-611 -446 0
-588 -469 0
-611 -469 0
-492 -51 0
-657 -492 0
-680 -492 0
-703 -492 0
-799 -492 0
-845 -492 0
-914 -492 0
-515 -54 0
-538 -69 0
-565 -57 0
-611 -588 0
-611 -75 0
-634 -97 0
-680 -634 0
-703 -634 0
-799 -634 0
-822 -634 0
-657 -85 0
-680 -657 0
-703 -657 0
-799 -657 0
-845 -657 0
-914 -657 0
-680 -78 0
-703 -680 0
-799 -680 0
-845 -680 0
-914 -680 0
-799 -703 0
-845 -703 0
-914 -703 0
-726 -94 0
-749 -66 0
-772 -103 0
-795 -148 0
-795 -182 0
-845 -799 0
-914 -799 0
-822 -44 0
-914 -845 0
-868 -88 0
-891 -100 0
-937 -122 0
-960 -125 0
-1006 -983 0
-1033 -983 0
-1056 -983 0
-1075 -983 0
-1084 -983 0
-1097 -983 0
-1103 -983 0
-1106 -983 0
-1112 -983 0
-1033 -1006 0
-1056 -1006 0
-1075 -1006 0
-1084 -1006 0
-1103 -1006 0
-1106 -1006 0
-1112 -1006 0
-1189 -1029 0
-1069 -1033 0
-1072 -1033 0
-1084 -1033 0
-1097 -1033 0
-1103 -1033 0
-1106 -1033 0
-1112 -1033 0
-1078 -1056 0
-1081 -1056 0
-1084 -1056 0
-1097 -1056 0
-1103 -1056 0
-1106 -1056 0
-1112 -1056 0
-1118 -1056 0
-1063 -112 0
-1066 -119 0
-1072 -1069 0
-1097 -1069 0
-1112 -1069 0
-1072 -137 0
-1097 -1072 0
-1112 -1072 0
-1075 -162 0
-1084 -1075 0
-1103 -1075 0
-1106 -1075 0
-1078 -143 0
-1081 -1078 0
-1084 -1078 0
-1097 -1078 0
-1103 -1078 0
-1112 -1078 0
-1118 -1078 0
-1081 -140 0
-1084 -1081 0
-1103 -1081 0
-1118 -1081 0
-1097 -1084 0
-1103 -1084 0
-1112 -1084 0
-1118 -1084 0
-1091 -146 0
-1094 -128 0
-1097 -165 0
-1103 -1097 0
-1106 -1097 0
-1112 -1097 0
-1100 -168 0
-1112 -1103 0
-1118 -1103 0
-1106 -106 0
-1112 -1106 0
-1109 -156 0
-1115 -159 0
-1125 -180 0
-1131 -1128 0
-1134 -1128 0
-1137 -1128 0
-1140 -1128 0
-1143 -1128 0
-1146 -1128 0
-1159 -1128 0
-1162 -1128 0
-1177 -1128 0
-1180 -1128 0
-1134 -1131 0
-1137 -1131 0
-1143 -1131 0
-1159 -1131 0
-1162 -1131 0
-1177 -1131 0
-1180 -1131 0
-1137 -1134 0
-1174 -1134 0
-1177 -1134 0
-1180 -1134 0
-1140 -1137 0
-1143 -1137 0
-1146 -1137 0
-1159 -1137 0
-1162 -1137 0
-1174 -1137 0
-1140 -190 0
-1143 -1140 0
-1146 -1140 0
-1159 -1140 0
-1165 -1140 0
-1177 -1140 0
-1180 -1140 0
-1146 -1143 0
-1159 -1143 0
-1165 -1143 0
-1177 -1143 0
-1180 -1143 0
-1159 -1146 0
-1165 -1146 0
-1177 -1146 0
-1180 -1146 0
-1149 -174 0
-1152 -177 0
-1165 -1159 0
-1177 -1159 0
-1180 -1159 0
-1162 -211 0
-1177 -1162 0
-1180 -1162 0
-1165 -199 0
-1177 -1165 0
-1168 -208 0
-1171 -193 0
-1174 -221 0
-1180 -171 0
-1183 -205 0
-1186 -214 0
-1199 -1193 0
-1205 -1193 0
-1196 -239 0
-1199 -1196 0
-1202 -1196 0
-1205 -1196 0
-1202 -1199 0
-1205 -1199 0
-1205 -1202 0
-1205 -267 0
-1206 -1194 0
-823 -401 -105 0
-846 -493 -108 0
-470 -447 -133 0
-612 -589 -136 0
-800 -681 -142 0
-635 -378 -161 0
-1107 -1007 -170 0
-1104 -1079 -198 0
-1076 -984 -210 0
-1098 -1034 -220 0
-1181 -1132 -226 0
-1144 -1141 -238 0
-1163 -1129 -260 0
-1175 -1135 -269 0
-1203 -1200 -1197 0
-915 -704 -658 -139 0
-1113 -1073 -1070 -195 0
-1119 -1085 -1082 -201 0
-1178 -1166 -1160 -244 0
-377 -44 0
-377 -103 0
-377 -63 0
-377 -54 0
-400 -97 0
-400 -63 0
-400 -103 0
-400 -54 0
-983 -106 0
-983 -168 0
-983 -125 0
-983 -112 0
-1006 -162 0
-1006 -125 0
-1006 -168 0
-1006 -112 0
-1128 -171 0
-1128 -224 0
-1128 -187 0
-1128 -174 0
-1131 -211 0
-1131 -187 0
-1131 -224 0
-1131 -174 0
-423 -97 0
-423 -75 0
-423 -57 0
-423 -54 0
-423 -88 0
-469 -75 0
-469 -94 0
-469 -57 0
-469 -60 0
-469 -88 0
-588 -72 0
-588 -94 0
-588 -57 0
-588 -60 0
-588 -88 0
-703 -44 0
-703 -78 0
-703 -66 0
-703 -54 0
-703 -100 0
-799 -44 0
-799 -85 0
-799 -66 0
-799 -54 0
-799 -100 0
-845 -85 0
-845 -91 0
-845 -66 0
-845 -69 0
-845 -100 0
-914 -51 0
-914 -91 0
-914 -66 0
-914 -69 0
-914 -100 0
-1033 -162 0
-1033 -137 0
-1033 -119 0
-1033 -112 0
-1033 -156 0
-1056 -162 0
-1056 -143 0
-1056 -119 0
-1056 -112 0
-1056 -159 0
-1069 -134 0
-1069 -146 0
-1069 -119 0
-1069 -122 0
-1069 -156 0
-1084 -106 0
-1084 -143 0
-1084 -128 0
-1084 -112 0
-1084 -159 0
-1103 -106 0
-1103 -140 0
-1103 -128 0
-1103 -112 0
-1103 -159 0
-1112 -162 0
-1112 -165 0
-1112 -119 0
-1112 -112 0
-1112 -156 0
-1118 -109 0
-1118 -153 0
-1118 -128 0
-1118 -131 0
-1118 -159 0
-1134 -211 0
-1134 -196 0
-1134 -177 0
-1134 -174 0
-1134 -205 0
-1137 -171 0
-1137 -221 0
-1137 -193 0
-1137 -174 0
-1137 -205 0
-1143 -211 0
-1143 -199 0
-1143 -177 0
-1143 -174 0
-1143 -214 0
-1146 -190 0
-1146 -208 0
-1146 -177 0
-1146 -180 0
-1146 -214 0
-1159 -211 0
-1159 -190 0
-1159 -177 0
-1159 -174 0
-1159 -214 0
-1177 -171 0
-1177 -202 0
-1177 -193 0
-1177 -174 0
-1177 -214 0
-1193 -227 0
-1193 -270 0
-1193 -242 0
-1193 -230 0
-1193 -255 0
-1199 -261 0
-1199 -245 0
-1199 -233 0
-1199 -230 0
-1199 -258 0
-1202 -264 0
-1202 -248 0
-1202 -233 0
-1202 -236 0
-1202 -258 0
c weights 0.5 1.0 0.5 1.0 0.5 1.0 0.5 1.0 0.5 1.0 0.5 1.0 0.5 1.0 0.5 1.0 0.5 1.0 0.5 1.0 0.5 1.0 0.5 1.0 0.5 1.0 0.5 1.0 0.5 1.0 0.5 1.0 1.0 1.0 1.0 1.0 0.5 1.0 1.0 1.0 1.0 1.0 1.0 1.0 0.5 1.0 1.0 1.0 1.0 1.0 1.0 1.0 1.0 1.0 1.0 1.0 1.0 1.0 1.0 1.0 1.0 1.0 1.0 1.0 1.0 1.0 1.0 1.0 1.0 1.0 1.0 1.0 1.0 1.0 1.0 1.0 1.0 1.0 1.0 1.0 1.0 1.0 1.0 1.0 1.0 1.0 1.0 1.0 0.5 1.0 1.0 1.0 1.0 1.0 0.5 1.0 1.0 1.0 1.0 1.0 1.0 1.0 0.5 1.0 1.0 1.0 1.0 1.0 0.5 1.0 1.0 1.0 1.0 1.0 0.5 1.0 1.0 1.0 1.0 1.0 0.5 1.0 1.0 1.0 1.0 1.0 0.5 1.0 1.0 1.0 1.0 1.0 0.5 1.0 1.0 1.0 1.0 1.0 0.5 1.0 1.0 1.0 1.0 1.0 0.5 1.0 1.0 1.0 1.0 1.0 0.5 1.0 1.0 1.0 1.0 1.0 0.5 1.0 1.0 1.0 1.0 1.0 0.5 1.0 1.0 1.0 1.0 1.0 1.0 1.0 0.5 1.0 1.0 1.0 1.0 1.0 0.5 1.0 1.0 1.0 1.0 1.0 0.5 1.0 1.0 1.0 1.0 1.0 0.5 1.0 1.0 1.0 1.0 1.0 0.5 1.0 1.0 1.0 1.0 1.0 0.5 1.0 1.0 1.0 1.0 1.0 0.5 1.0 1.0 1.0 1.0 1.0 0.5 1.0 1.0 1.0 1.0 1.0 0.5 1.0 1.0 1.0 1.0 1.0 0.5 1.0 1.0 1.0 1.0 1.0 0.5 1.0 1.0 1.0 1.0 1.0 1.0 1.0 0.5 1.0 1.0 1.0 1.0 1.0 0.5 1.0 1.0 1.0 1.0 1.0 0.5 1.0 1.0 1.0 1.0 1.0 0.5 1.0 1.0 1.0 1.0 1.0 0.5 1.0 1.0 1.0 1.0 1.0 0.5 1.0 1.0 1.0 1.0 1.0 0.5 1.0 1.0 1.0 1.0 1.0 0.5 1.0 1.0 1.0 1.0 1.0 0.5 1.0 1.0 1.0 1.0 1.0 0.5 1.0 1.0 1.0 1.0 1.0 0.5 1.0 1.0 1.0 1.0 1.0 1.0 1.0 0.5 1.0 1.0 1.0 1.0 1.0 0.5 1.0 1.0 1.0 1.0 1.0 0.5 1.0 1.0 1.0 1.0 1.0 0.5 1.0 1.0 1.0 1.0 1.0 0.5 1.0 1.0 1.0 1.0 1.0 0.5 1.0 1.0 1.0 1.0 1.0 0.5 1.0 1.0 1.0 1.0 1.0 0.5 1.0 1.0 1.0 1.0 1.0 0.5 1.0 1.0 1.0 1.0 1.0 0.5 1.0 1.0 1.0 1.0 1.0 0.5 1.0 1.0 1.0 1.0 1.0 1.0 1.0 0.5 1.0 1.0 1.0 1.0 1.0 0.5 1.0 1.0 1.0 1.0 1.0 0.5 1.0 1.0 1.0 1.0 1.0 0.5 1.0 1.0 1.0 1.0 1.0 0.5 1.0 1.0 1.0 1.0 1.0 0.5 1.0 1.0 1.0 1.0 1.0 0.5 1.0 1.0 1.0 1.0 1.0 0.5 1.0 1.0 1.0 1.0 1.0 0.5 1.0 1.0 1.0 1.0 1.0 0.5 1.0 1.0 1.0 1.0 1.0 0.5 1.0 1.0 1.0 1.0 1.0 1.0 1.0 0.5 1.0 1.0 1.0 1.0 1.0 0.5 1.0 1.0 1.0 1.0 1.0 0.5 1.0 1.0 1.0 1.0 1.0 0.5 1.0 1.0 1.0 1.0 1.0 0.5 1.0 1.0 1.0 1.0 1.0 0.5 1.0 1.0 1.0 1.0 1.0 0.5 1.0 1.0 1.0 1.0 1.0 0.5 1.0 1.0 1.0 1.0 1.0 0.5 1.0 1.0 1.0 1.0 1.0 0.5 1.0 1.0 1.0 1.0 1.0 0.5 1.0 1.0 1.0 1.0 1.0 1.0 1.0 0.5 1.0 1.0 1.0 1.0 1.0 0.5 1.0 1.0 1.0 1.0 1.0 0.5 1.0 1.0 1.0 1.0 1.0 0.5 1.0 1.0 1.0 1.0 1.0 0.5 1.0 1.0 1.0 1.0 1.0 0.5 1.0 1.0 1.0 1.0 1.0 1.0 1.0 1.0 1.0 1.0 1.0 1.0 1.0 1.0 1.0 1.0 1.0 1.0 1.0 1.0 1.0 0.5 1.0 1.0 1.0 1.0 1.0 1.0 1.0 1.0 1.0 1.0 1.0 1.0 1.0 1.0 1.0 1.0 1.0 1.0 1.0 1.0 1.0 1.0 1.0 1.0 1.0 1.0 1.0 1.0 1.0 1.0 1.0 1.0 1.0 1.0 1.0 1.0 1.0 1.0 1.0 1.0 1.0 1.0 1.0 1.0 1.0 1.0 1.0 0.5 1.0 1.0 1.0 1.0 1.0 1.0 1.0 1.0 1.0 1.0 1.0 1.0 1.0 1.0 1.0 1.0 1.0 1.0 1.0 1.0 1.0 1.0 1.0 1.0 1.0 1.0 1.0 1.0 1.0 1.0 1.0 1.0 1.0 1.0 1.0 1.0 1.0 1.0 1.0 1.0 1.0 1.0 1.0 1.0 1.0 0.5 1.0 1.0 1.0 1.0 1.0 1.0 1.0 0.5 1.0 1.0 1.0 1.0 1.0 1.0 1.0 1.0 1.0 1.0 1.0 1.0 1.0 1.0 1.0 1.0 1.0 1.0 1.0 1.0 1.0 1.0 1.0 1.0 1.0 1.0 1.0 1.0 1.0 1.0 1.0 1.0 1.0 1.0 1.0 1.0 1.0 1.0 1.0 1.0 1.0 1.0 1.0 1.0 1.0 0.5 1.0 1.0 1.0 1.0 1.0 1.0 1.0 1.0 1.0 1.0 1.0 1.0 1.0 1.0 1.0 1.0 1.0 1.0 1.0 1.0 1.0 1.0 1.0 1.0 1.0 1.0 1.0 1.0 1.0 1.0 1.0 1.0 1.0 1.0 1.0 1.0 1.0 1.0 1.0 1.0 1.0 1.0 1.0 1.0 1.0 0.5 1.0 1.0 1.0 1.0 1.0 1.0 1.0 1.0 1.0 1.0 1.0 1.0 1.0 1.0 1.0 1.0 1.0 1.0 1.0 1.0 1.0 1.0 1.0 1.0 1.0 1.0 1.0 1.0 1.0 1.0 1.0 1.0 1.0 1.0 1.0 1.0 1.0 1.0 1.0 1.0 1.0 1.0 1.0 1.0 1.0 0.5 1.0 1.0 1.0 1.0 1.0 1.0 1.0 1.0 1.0 1.0 1.0 1.0 1.0 1.0 1.0 1.0 1.0 1.0 1.0 1.0 1.0 1.0 1.0 1.0 1.0 1.0 1.0 1.0 1.0 1.0 1.0 1.0 1.0 1.0 1.0 1.0 1.0 1.0 1.0 1.0 1.0 1.0 1.0 1.0 1.0 0.5 1.0 1.0 1.0 1.0 1.0 1.0 1.0 1.0 1.0 1.0 1.0 1.0 1.0 1.0 1.0 1.0 1.0 1.0 1.0 1.0 1.0 1.0 1.0 1.0 1.0 1.0 1.0 1.0 1.0 1.0 1.0 1.0 1.0 1.0 1.0 1.0 1.0 1.0 1.0 1.0 1.0 1.0 1.0 1.0 1.0 0.5 1.0 1.0 1.0 1.0 1.0 1.0 1.0 1.0 1.0 1.0 1.0 1.0 1.0 1.0 1.0 1.0 1.0 1.0 1.0 1.0 1.0 1.0 1.0 1.0 1.0 1.0 1.0 1.0 1.0 1.0 1.0 1.0 1.0 1.0 1.0 1.0 1.0 1.0 1.0 1.0 1.0 1.0 1.0 1.0 1.0 0.5 1.0 1.0 1.0 1.0 1.0 1.0 1.0 1.0 1.0 1.0 1.0 1.0 1.0 1.0 1.0 1.0 1.0 1.0 1.0 1.0 1.0 1.0 1.0 1.0 1.0 1.0 1.0 1.0 1.0 1.0 1.0 1.0 1.0 1.0 1.0 1.0 1.0 1.0 1.0 1.0 1.0 1.0 1.0 1.0 1.0 0.5 1.0 1.0 1.0 1.0 1.0 1.0 1.0 1.0 1.0 1.0 1.0 1.0 1.0 1.0 1.0 1.0 1.0 1.0 1.0 1.0 1.0 1.0 1.0 1.0 1.0 1.0 1.0 1.0 1.0 1.0 1.0 1.0 1.0 1.0 1.0 1.0 1.0 1.0 1.0 1.0 1.0 1.0 1.0 1.0 1.0 0.5 1.0 1.0 1.0 1.0 1.0 1.0 1.0 1.0 1.0 1.0 1.0 1.0 1.0 1.0 1.0 1.0 1.0 1.0 1.0 1.0 1.0 1.0 1.0 1.0 1.0 1.0 1.0 1.0 1.0 1.0 1.0 1.0 1.0 1.0 1.0 1.0 1.0 1.0 1.0 1.0 1.0 1.0 1.0 1.0 1.0 0.5 1.0 1.0 1.0 1.0 1.0 1.0 1.0 1.0 1.0 1.0 1.0 1.0 1.0 1.0 1.0 1.0 1.0 1.0 1.0 1.0 1.0 1.0 1.0 1.0 1.0 1.0 1.0 1.0 1.0 1.0 1.0 1.0 1.0 1.0 1.0 1.0 1.0 1.0 1.0 1.0 1.0 1.0 1.0 1.0 1.0 0.5 1.0 1.0 1.0 1.0 1.0 1.0 1.0 0.5 1.0 1.0 1.0 1.0 1.0 1.0 1.0 1.0 1.0 1.0 1.0 1.0 1.0 1.0 1.0 1.0 1.0 1.0 1.0 1.0 1.0 1.0 1.0 1.0 1.0 1.0 1.0 1.0 1.0 1.0 1.0 1.0 1.0 1.0 1.0 1.0 1.0 1.0 1.0 1.0 1.0 1.0 1.0 1.0 1.0 0.5 1.0 1.0 1.0 1.0 1.0 1.0 1.0 1.0 1.0 1.0 1.0 1.0 1.0 1.0 1.0 1.0 1.0 1.0 1.0 1.0 1.0 1.0 1.0 1.0 1.0 1.0 1.0 1.0 1.0 1.0 1.0 1.0 1.0 1.0 1.0 1.0 1.0 1.0 1.0 1.0 1.0 1.0 1.0 1.0 1.0 0.5 1.0 1.0 1.0 1.0 1.0 1.0 1.0 1.0 1.0 1.0 1.0 1.0 1.0 1.0 1.0 1.0 1.0 1.0 1.0 1.0 1.0 1.0 1.0 1.0 1.0 1.0 1.0 1.0 1.0 1.0 1.0 1.0 1.0 1.0 1.0 1.0 1.0 1.0 1.0 1.0 1.0 1.0 1.0 1.0 1.0 0.5 1.0 1.0 1.0 1.0 1.0 1.0 1.0 1.0 1.0 1.0 1.0 1.0 1.0 1.0 1.0 1.0 1.0 1.0 1.0 1.0 1.0 1.0 1.0 1.0 1.0 1.0 1.0 1.0 1.0 1.0 1.0 1.0 1.0 1.0 1.0 1.0 1.0 1.0 1.0 1.0 1.0 1.0 1.0 1.0 1.0 0.5 1.0 1.0 1.0 1.0 1.0 1.0 1.0 1.0 1.0 1.0 1.0 1.0 1.0 1.0 1.0 1.0 1.0 1.0 1.0 1.0 1.0 1.0 1.0 1.0 1.0 1.0 1.0 1.0 1.0 1.0 1.0 1.0 1.0 1.0 1.0 1.0 1.0 1.0 1.0 1.0 1.0 1.0 1.0 1.0 1.0 0.5 1.0 1.0 1.0 1.0 1.0 1.0 1.0 1.0 1.0 1.0 1.0 1.0 1.0 1.0 1.0 1.0 1.0 1.0 1.0 1.0 1.0 1.0 1.0 1.0 1.0 1.0 1.0 1.0 1.0 1.0 1.0 1.0 1.0 1.0 1.0 1.0 1.0 1.0 1.0 1.0 1.0 1.0 1.0 1.0 1.0 0.5 1.0 1.0 1.0 1.0 1.0 1.0 1.0 1.0 1.0 1.0 1.0 1.0 1.0 1.0 1.0 1.0 1.0 1.0 1.0 1.0 1.0 1.0 1.0 1.0 1.0 1.0 1.0 1.0 1.0 1.0 1.0 1.0 1.0 1.0 1.0 1.0 1.0 1.0 1.0 1.0 1.0 1.0 1.0 1.0 1.0 0.5 1.0 1.0 1.0 1.0 1.0 1.0 1.0 1.0 1.0 1.0 1.0 1.0 1.0 1.0 1.0 1.0 1.0 1.0 1.0 1.0 1.0 1.0 1.0 1.0 1.0 1.0 1.0 1.0 1.0 1.0 1.0 1.0 1.0 1.0 1.0 1.0 1.0 1.0 1.0 1.0 1.0 1.0 1.0 1.0 1.0 0.5 1.0 1.0 1.0 1.0 1.0 1.0 1.0 1.0 1.0 1.0 1.0 1.0 1.0 1.0 1.0 1.0 1.0 1.0 1.0 1.0 1.0 1.0 1.0 1.0 1.0 1.0 1.0 1.0 1.0 1.0 1.0 1.0 1.0 1.0 1.0 1.0 1.0 1.0 1.0 1.0 1.0 1.0 1.0 1.0 1.0 0.5 1.0 1.0 1.0 1.0 1.0 1.0 1.0 1.0 1.0 1.0 1.0 1.0 1.0 1.0 1.0 1.0 1.0 1.0 1.0 1.0 1.0 1.0 1.0 1.0 1.0 1.0 1.0 1.0 1.0 1.0 1.0 1.0 1.0 1.0 1.0 1.0 1.0 1.0 1.0 1.0 1.0 1.0 1.0 1.0 1.0 0.5 1.0 1.0 1.0 1.0 1.0 1.0 1.0 0.5 1.0 1.0 1.0 1.0 1.0 1.0 1.0 1.0 1.0 1.0 1.0 1.0 1.0 1.0 1.0 1.0 1.0 1.0 1.0 1.0 1.0 1.0 1.0 1.0 1.0 1.0 1.0 1.0 1.0 1.0 1.0 1.0 1.0 1.0 1.0 1.0 1.0 1.0 1.0 1.0 1.0 1.0 1.0 1.0 1.0 0.5 1.0 1.0 1.0 1.0 1.0 1.0 1.0 1.0 1.0 1.0 1.0 1.0 1.0 1.0 1.0 1.0 1.0 1.0 1.0 1.0 1.0 1.0 1.0 1.0 1.0 1.0 1.0 1.0 1.0 1.0 1.0 1.0 1.0 1.0 1.0 1.0 1.0 1.0 1.0 1.0 1.0 1.0 1.0 1.0 1.0 0.5 1.0 1.0 1.0 1.0 1.0 1.0 1.0 1.0 1.0 1.0 1.0 1.0 1.0 1.0 1.0 1.0 1.0 1.0 1.0 1.0 1.0 1.0 1.0 1.0 1.0 1.0 1.0 1.0 1.0 1.0 1.0 1.0 1.0 1.0 1.0 1.0 1.0 1.0 1.0 1.0 1.0 1.0 1.0 1.0 1.0 0.5 1.0 1.0 1.0 1.0 1.0 1.0 1.0 1.0 1.0 1.0 1.0 1.0 1.0 1.0 1.0 1.0 1.0 1.0 1.0 1.0 1.0 1.0 1.0 1.0 1.0 1.0 1.0 1.0 1.0 1.0 1.0 1.0 1.0 1.0 1.0 1.0 1.0 1.0 1.0 1.0 1.0 1.0 1.0 1.0 1.0 0.5 1.0 1.0 1.0 1.0 1.0 1.0 1.0 1.0 1.0 1.0 1.0 1.0 1.0 1.0 1.0 1.0 1.0 1.0 1.0 1.0 1.0 1.0 1.0 1.0 1.0 1.0 1.0 1.0 1.0 1.0 1.0 1.0 1.0 1.0 1.0 1.0 1.0 1.0 1.0 1.0 1.0 1.0 1.0 1.0 1.0 0.5 1.0 1.0 1.0 1.0 1.0 1.0 1.0 1.0 1.0 1.0 1.0 1.0 1.0 1.0 1.0 1.0 1.0 1.0 1.0 1.0 1.0 1.0 1.0 1.0 1.0 1.0 1.0 1.0 1.0 1.0 1.0 1.0 1.0 1.0 1.0 1.0 1.0 1.0 1.0 1.0 1.0 1.0 1.0 1.0 1.0 0.5 1.0 1.0 1.0 1.0 1.0 1.0 1.0 1.0 1.0 1.0 1.0 1.0 1.0 1.0 1.0 1.0 1.0 1.0 1.0 1.0 1.0 1.0 1.0 1.0 1.0 1.0 1.0 1.0 1.0 1.0 1.0 1.0 1.0 1.0 1.0 1.0 1.0 1.0 1.0 1.0 1.0 1.0 1.0 1.0 1.0 0.5 1.0 1.0 1.0 1.0 1.0 1.0 1.0 1.0 1.0 1.0 1.0 1.0 1.0 1.0 1.0 1.0 1.0 1.0 1.0 1.0 1.0 1.0 1.0 1.0 1.0 1.0 1.0 1.0 1.0 1.0 1.0 1.0 1.0 1.0 1.0 1.0 1.0 1.0 1.0 1.0 1.0 1.0 1.0 1.0 1.0 0.5 1.0 1.0 1.0 1.0 1.0 1.0 1.0 1.0 1.0 1.0 1.0 1.0 1.0 1.0 1.0 1.0 1.0 1.0 1.0 1.0 1.0 1.0 1.0 1.0 1.0 1.0 1.0 1.0 1.0 1.0 1.0 1.0 1.0 1.0 1.0 1.0 1.0 1.0 1.0 1.0 1.0 1.0 1.0 1.0 1.0 0.5 1.0 1.0 1.0 1.0 1.0 1.0 1.0 1.0 1.0 1.0 1.0 1.0 1.0 1.0 1.0 1.0 1.0 1.0 1.0 1.0 1.0 1.0 1.0 1.0 1.0 1.0 1.0 1.0 1.0 1.0 1.0 1.0 1.0 1.0 1.0 1.0 1.0 1.0 1.0 1.0 1.0 1.0 1.0 1.0 1.0 0.5 1.0 1.0 1.0 1.0 1.0 1.0 1.0 0.5 1.0 1.0 1.0 1.0 1.0 1.0 1.0 1.0 1.0 1.0 1.0 1.0 1.0 1.0 1.0 1.0 1.0 1.0 1.0 1.0 1.0 1.0 1.0 1.0 1.0 1.0 1.0 1.0 1.0 1.0 1.0 1.0 1.0 1.0 1.0 1.0 1.0 1.0 1.0 1.0 1.0 1.0 1.0 1.0 1.0 0.5 1.0 1.0 1.0 1.0 1.0 1.0 1.0 1.0 1.0 1.0 1.0 1.0 1.0 0.5 1.0 1.0 1.0 1.0 1.0 0.5 1.0 1.0 1.0 1.0 1.0 0.5 1.0 1.0 1.0 1.0 1.0 0.5 1.0 1.0 1.0 1.0 1.0 0.5 1.0 1.0 1.0 1.0 1.0 0.5 1.0 1.0 1.0 1.0 1.0 0.5 1.0 1.0 1.0 1.0 1.0 0.5 1.0 1.0 1.0 1.0 1.0 0.5 1.0 1.0 1.0 1.0 1.0 1.0 1.0 0.5 1.0 1.0 1.0 1.0 1.0 0.5 1.0 1.0 1.0 1.0 1.0 0.5 1.0 1.0 1.0 1.0 1.0 0.5 1.0 1.0 1.0 1.0 1.0 0.5 1.0 1.0 1.0 1.0 1.0 0.5 1.0 1.0 1.0 1.0 1.0 0.5 1.0 1.0 1.0 1.0 1.0 0.5 1.0 1.0 1.0 1.0 1.0 0.5 1.0 1.0 1.0 1.0 1.0 0.5 1.0 1.0 1.0 1.0 1.0 0.5 1.0 1.0 1.0 1.0 1.0 1.0 1.0 0.5 1.0 1.0 1.0 1.0 1.0 0.5 1.0 1.0 1.0 1.0 1.0 0.5 1.0 1.0 1.0 1.0 1.0 0.5 1.0 1.0 1.0 1.0 1.0 0.5 1.0 1.0 1.0 1.0 1.0 0.5 1.0 1.0 1.0 1.0 1.0 0.5 1.0 1.0 1.0 1.0 1.0 0.5 1.0 1.0 1.0 1.0 1.0 0.5 1.0 1.0 1.0 1.0 1.0 0.5 1.0 1.0 1.0 1.0 1.0 0.5 1.0 1.0 1.0 1.0 1.0 1.0 1.0 0.5 1.0 1.0 1.0 1.0 1.0 0.5 1.0 1.0 1.0 1.0 1.0 0.5 1.0 1.0 1.0 1.0 1.0 0.5 1.0 1.0 1.0 1.0 1.0 0.5 1.0 1.0 1.0 1.0 1.0 0.5 1.0 1.0 1.0 1.0 1.0 0.5 1.0 1.0 1.0 1.0 1.0 0.5 1.0 1.0 1.0 1.0 1.0 0.5 1.0 1.0 1.0 1.0 1.0 0.5 1.0 1.0 1.0 1.0 1.0 0.5 1.0 1.0 1.0 1.0 1.0 1.0 1.0 0.5 1.0 1.0 1.0 1.0 1.0 0.5 1.0 1.0 1.0 1.0 1.0 0.5 1.0 1.0 1.0 1.0 1.0 0.5 1.0 1.0 1.0 1.0 1.0 0.5 1.0 1.0 1.0 1.0 1.0 1.0 1.0 1.0 1.0 1.0 1.0 1.0 1.0 1.0 1.0 1.0 1.0 1.0 1.0 1.0 1.0
